c Generated map
c Size: 8 * 8, weights in range: 1 to 10, walls: True, with ratio 0.1
c dim 2 of 10
c
p sp 64 94
c graph contains 64 nodes and 94 arcs
c
a 1 9 2
a 9 1 2
a 1 2 5
a 2 1 5
a 2 10 1
a 10 2 1
a 2 3 10
a 3 2 10
a 3 11 7
a 11 3 7
a 3 4 6
a 4 3 6
a 4 12 9
a 12 4 9
a 4 5 5
a 5 4 5
a 5 13 6
a 13 5 6
a 5 6 10
a 6 5 10
a 6 14 10
a 14 6 10
a 6 7 4
a 7 6 4
a 7 15 9
a 15 7 9
a 7 8 2
a 8 7 2
a 8 16 1
a 16 8 1
a 9 17 2
a 17 9 2
a 9 10 3
a 10 9 3
a 10 18 6
a 18 10 6
a 10 11 6
a 11 10 6
a 11 19 5
a 19 11 5
a 11 12 2
a 12 11 2
a 12 20 8
a 20 12 8
a 12 13 4
a 13 12 4
a 13 21 6
a 21 13 6
a 13 14 6
a 14 13 6
a 14 15 5
a 15 14 5
a 15 23 9
a 23 15 9
a 15 16 2
a 16 15 2
a 16 24 5
a 24 16 5
a 17 25 2
a 25 17 2
a 17 18 6
a 18 17 6
a 18 26 10
a 26 18 10
a 18 19 7
a 19 18 7
a 19 27 7
a 27 19 7
a 19 20 8
a 20 19 8
a 20 28 6
a 28 20 6
a 20 21 10
a 21 20 10
a 21 29 10
a 29 21 10
a 23 31 9
a 31 23 9
a 23 24 5
a 24 23 5
a 24 32 7
a 32 24 7
a 25 33 8
a 33 25 8
a 25 26 4
a 26 25 4
a 26 34 4
a 34 26 4
a 26 27 6
a 27 26 6
a 27 35 10
a 35 27 10
a 27 28 1
a 28 27 1
a 28 36 4
a 36 28 4
a 28 29 5
a 29 28 5
a 29 37 3
a 37 29 3
a 29 30 6
a 30 29 6
a 30 38 10
a 38 30 10
a 30 31 7
a 31 30 7
a 31 32 5
a 32 31 5
a 32 40 7
a 40 32 7
a 33 41 4
a 41 33 4
a 33 34 9
a 34 33 9
a 34 42 4
a 42 34 4
a 34 35 7
a 35 34 7
a 35 43 2
a 43 35 2
a 35 36 7
a 36 35 7
a 36 44 3
a 44 36 3
a 36 37 10
a 37 36 10
a 37 45 3
a 45 37 3
a 37 38 2
a 38 37 2
a 38 46 6
a 46 38 6
a 40 48 10
a 48 40 10
a 41 42 6
a 42 41 6
a 42 50 1
a 50 42 1
a 42 43 2
a 43 42 2
a 43 51 2
a 51 43 2
a 43 44 1
a 44 43 1
a 44 52 8
a 52 44 8
a 44 45 5
a 45 44 5
a 45 53 9
a 53 45 9
a 45 46 4
a 46 45 4
a 46 47 3
a 47 46 3
a 47 55 4
a 55 47 4
a 47 48 6
a 48 47 6
a 48 56 4
a 56 48 4
a 50 51 2
a 51 50 2
a 51 59 6
a 59 51 6
a 51 52 4
a 52 51 4
a 52 60 2
a 60 52 2
a 52 53 3
a 53 52 3
a 53 61 7
a 61 53 7
a 55 63 9
a 63 55 9
a 55 56 1
a 56 55 1
a 56 64 10
a 64 56 10
a 59 60 3
a 60 59 3
a 60 61 4
a 61 60 4
a 61 62 4
a 62 61 4
a 62 63 6
a 63 62 6
a 63 64 9
a 64 63 9
